% ----DATA VARIABLES----

t=8;%number of attributes
k=5;%max length of the support set
n=5;%number of positive instances
m=5;%number of negative instances
c=1;%number of atMostOne Constraints

% ----OMEGAS----

omegap= [| 1, 0, 0, 1, 0, 0, 1, 0|
 0, 0, 0, 1, 0, 0, 1, 1|
 1, 1, 1, 0, 1, 1, 1, 0|
 0, 1, 0, 0, 0, 1, 0, 0|
 0, 0, 1, 0, 1, 0, 0, 1|];

omegan= [| 0, 0, 1, 0, 0, 0, 0, 1|
 0, 0, 1, 0, 0, 0, 1, 0|
 0, 1, 1, 1, 1, 0, 0, 0|
 0, 0, 0, 0, 1, 1, 0, 0|
 0, 1, 0, 1, 1, 1, 0, 1|];

% ----CONSTRAINS----

atMostOne=[{5, 5, 4}];